n_res = 3;
rcap = [22, 23, 64];
rtype = [1, 1, 2];
n_tasks = 16;
modes = [ {1, 2, 3}, {4, 5, 6}, {7, 8, 9}, {10, 11, 12}, {13, 14, 15}, {16, 17, 18}, {19, 20, 21}, {22, 23, 24}, {25, 26, 27}, {28, 29, 30}, {31, 32, 33}, {34, 35, 36}, {37, 38, 39}, {40, 41, 42}, {43, 44, 45}, {46, 47, 48} ];
succ = [ {5, 8, 10}, {8, 10, 12}, {4, 9, 12}, {8, 11}, {6, 7, 11}, {14, 15, 16}, {16}, {15}, {10, 13}, {14}, {13, 16}, {13}, {14, 15}, {}, {}, {} ];
n_opt = 48;
dur = [6, 6, 8, 5, 5, 7, 5, 8, 10, 3, 8, 9, 1, 2, 8, 5, 10, 10, 7, 7, 10, 5, 7, 10, 3, 4, 7, 5, 6, 10, 1, 1, 6, 4, 5, 6, 1, 3, 9, 6, 8, 9, 6, 8, 10, 7, 8, 10];
rreq = [|  6,  0,  0,  7,  0,  7,  0,  7,  3,  7,  0,  0,  0,  1,  0,  0,  0,  1,  5,  0,  5,  7,  0,  5,  0,  0,  0,  7,  0,  6,  4,  0,  0,  2,  0,  0,  0,  9,  8,  4,  0,  0,  7,  0,  0,  0,  9,  0
        |  0, 10,  8,  0,  6,  0,  5,  0,  0,  0,  6,  3,  8,  0,  5,  5,  2,  0,  0,  1,  0,  0,  5,  0,  8,  6,  5,  0,  6,  0,  0,  9,  4,  0,  5,  4, 10,  0,  0,  0,  7,  5,  0,  8,  3,  6,  0,  5
        |  1,  1,  0,  9,  0,  0,  0,  1,  1,  0,  0,  0,  0,  0,  0,  8,  0,  0,  7,  5,  3,  6,  0,  0,  5,  3,  0,  8,  0,  0,  0,  0,  0,  5,  0,  4,  9,  9,  9,  6,  5,  5,  0,  0,  4, 10,  0,  9 |];
